p cnf 116 399
3 1 0
3 -2 0
-1 2 -3 0
-5 3 0
-5 4 0
-3 -4 5 0
6 2 -7 0
-6 -2 -7 0
6 -2 7 0
-6 2 7 0
9 -6 0
9 -8 0
6 8 -9 0
10 -1 0
10 -9 0
1 9 -10 0
-11 7 0
-11 -10 0
-7 10 11 0
5 11 -12 0
-5 -11 -12 0
5 -11 12 0
-5 11 12 0
-4 -15 0
4 -15 0
-16 -14 0
-16 15 0
14 -15 16 0
-18 16 0
-18 17 0
-16 -17 18 0
19 -18 0
19 14 0
18 -14 -19 0
-20 -19 0
-20 14 0
19 -14 20 0
21 13 0
21 -20 0
-13 20 -21 0
23 14 0
23 17 0
-14 -17 -23 0
22 23 -24 0
-22 -23 -24 0
22 -23 24 0
-22 23 24 0
-26 24 0
-26 -25 0
-24 25 26 0
-27 21 0
-27 26 0
-21 -26 27 0
29 28 0
29 -25 0
-28 25 -29 0
30 -29 0
30 17 0
29 -17 -30 0
31 3 0
31 -2 0
-3 2 -31 0
22 -31 -32 0
-22 31 -32 0
22 31 32 0
-22 -31 32 0
-33 -32 0
-33 -23 0
32 23 33 0
-34 -30 0
-34 -33 0
30 33 34 0
34 18 -35 0
-34 -18 -35 0
34 -18 35 0
-34 18 35 0
36 -13 -37 0
-36 13 -37 0
36 13 37 0
-36 -13 37 0
-38 -37 0
-38 3 0
37 -3 38 0
-39 1 0
-39 -7 0
-1 7 39 0
31 -39 -40 0
-31 39 -40 0
31 39 40 0
-31 -39 40 0
41 -40 0
41 -25 0
40 25 -41 0
42 -38 0
42 -41 0
38 41 -42 0
-35 -42 -43 0
35 42 -43 0
-35 42 43 0
35 -42 43 0
-44 27 0
-44 43 0
-27 -43 44 0
45 -12 0
45 44 0
12 -44 -45 0
-1 7 -46 0
1 -7 -46 0
-1 -7 46 0
1 7 46 0
46 -34 -47 0
-46 34 -47 0
46 34 47 0
-46 -34 47 0
48 -6 0
48 29 0
6 -29 -48 0
-49 -25 0
-49 -48 0
25 48 49 0
-50 -1 0
-50 49 0
1 -49 50 0
51 47 0
51 -50 0
-47 50 -51 0
52 -46 0
52 28 0
46 -28 -52 0
-52 -33 -53 0
52 33 -53 0
-52 33 53 0
52 -33 53 0
-54 13 0
-54 29 0
-13 -29 54 0
-55 -53 0
-55 -54 0
53 54 55 0
39 16 -56 0
-39 -16 -56 0
39 -16 56 0
-39 16 56 0
-57 -56 0
-57 3 0
56 -3 57 0
-39 57 -58 0
39 -57 -58 0
-39 -57 58 0
39 57 58 0
59 1 0
59 58 0
-1 -58 -59 0
-60 14 0
-60 14 0
-14 60 0
59 -60 -61 0
-59 60 -61 0
59 60 61 0
-59 -60 61 0
-63 -62 0
-63 14 0
62 -14 63 0
-64 63 0
-64 -7 0
-63 7 64 0
-39 -64 -65 0
39 64 -65 0
-39 64 65 0
39 -64 65 0
66 61 0
66 -65 0
-61 65 -66 0
-67 14 0
-67 -25 0
-14 25 67 0
68 -67 0
68 17 0
67 -17 -68 0
68 -37 -69 0
-68 37 -69 0
68 37 69 0
-68 -37 69 0
24 69 -70 0
-24 -69 -70 0
24 -69 70 0
-24 69 70 0
71 66 0
71 70 0
-66 -70 -71 0
72 -55 0
72 71 0
55 -71 -72 0
73 51 0
73 72 0
-51 -72 -73 0
74 31 0
74 -7 0
-31 7 -74 0
8 74 -75 0
-8 -74 -75 0
8 -74 75 0
-8 74 75 0
73 75 -76 0
-73 -75 -76 0
73 -75 76 0
-73 75 76 0
-77 -7 0
-77 -1 0
7 1 77 0
77 33 -78 0
-77 -33 -78 0
77 -33 78 0
-77 33 78 0
-79 57 0
-79 78 0
-57 -78 79 0
80 30 0
80 39 0
-30 -39 -80 0
-81 79 0
-81 80 0
-79 -80 81 0
76 81 -82 0
-76 -81 -82 0
76 -81 82 0
-76 81 82 0
84 -64 0
84 83 0
64 -83 -84 0
-85 23 0
-85 -40 0
-23 40 85 0
86 15 0
86 -1 0
-15 1 -86 0
87 -85 0
87 86 0
85 -86 -87 0
88 -84 0
88 -87 0
84 87 -88 0
89 17 0
89 -36 0
-17 36 -89 0
-90 88 0
-90 -89 0
-88 89 90 0
91 -82 0
91 -90 0
82 90 -91 0
-92 -45 0
-92 91 0
45 -91 92 0
93 -41 0
93 -7 0
41 7 -93 0
94 -3 0
94 93 0
3 -93 -94 0
95 8 0
95 -28 0
-8 28 -95 0
37 -95 -96 0
-37 95 -96 0
37 95 96 0
-37 -95 96 0
-96 -9 -97 0
96 9 -97 0
-96 9 97 0
96 -9 97 0
98 13 0
98 -15 0
-13 15 -98 0
99 97 0
99 -98 0
-97 98 -99 0
-100 63 0
-100 98 0
-63 -98 100 0
101 99 0
101 100 0
-99 -100 -101 0
-94 -101 -102 0
94 101 -102 0
-94 101 102 0
94 -101 102 0
103 24 0
103 96 0
-24 -96 -103 0
-104 -103 0
-104 68 0
103 -68 104 0
-105 -77 0
-105 -16 0
77 16 105 0
105 -13 -106 0
-105 13 -106 0
105 13 106 0
-105 -13 106 0
-107 -2 0
-107 36 0
2 -36 107 0
108 107 0
108 63 0
-107 -63 -108 0
-109 -106 0
-109 108 0
106 -108 109 0
-29 97 -110 0
29 -97 -110 0
-29 -97 110 0
29 97 110 0
111 -57 0
111 97 0
57 -97 -111 0
-112 110 0
-112 -111 0
-110 111 112 0
-113 -109 0
-113 112 0
109 -112 113 0
-114 -104 0
-114 -113 0
104 113 114 0
-115 -102 0
-115 114 0
102 -114 115 0
92 -115 -116 0
-92 115 -116 0
92 115 116 0
-92 -115 116 0
-43 -57 -60 -15 81 19 0
83 -31 65 0
-78 0
91 115 9 22 -101 0
16 -93 21 0
65 73 114 34 45 0
64 17 -5 83 82 0
76 -46 -23 0
55 -37 12 -82 0
69 80 49 -55 73 -11 0
-34 17 18 -93 -19 0
100 -109 -15 0
90 -60 91 0
-58 115 0
61 5 -19 0
-70 24 -93 -113 36 110 0
76 59 -49 0
30 23 0
3 96 -111 -42 -71 0
64 -40 100 43 34 0
3 76 75 -59 -4 0
69 -1 -111 0
-111 60 -64 43 -2 0
-86 51 0
8 -26 44 0
85 -27 0
-20 -19 105 -30 0
90 -89 -108 0
28 -68 -77 10 81 116 0
-51 46 23 0
-43 -88 17 -110 67 -98 0
48 -104 0
-108 -83 42 -10 79 0
-42 -74 0
-17 82 -67 -68 -50 -8 0
93 -56 115 0
-89 99 3 84 95 0
-86 -13 98 0
67 86 -83 46 6 0
-95 -19 0
8 7 13 0
-94 -8 -18 -39 61 64 0
73 -103 12 -72 26 -96 0
-21 8 51 0
31 25 -45 46 0
-52 -27 17 -22 -50 0
44 29 -62 115 16 -17 0
-4 -105 110 -85 -69 0
-31 99 0
-66 -78 -74 -4 33 0
8 115 -89 -62 0
-108 74 -80 32 -101 -1 0
-10 15 2 -5 -90 0
18 -56 -12 -101 -35 0
-91 -17 -46 -74 99 0
36 84 87 0
-40 31 0
80 91 0
86 -26 87 0
-8 -96 -17 0
-106 -67 0
65 13 0
-48 20 63 -16 -19 0
71 -45 -85 -18 25 -69 0
68 -72 -62 -83 -114 0
-42 116 81 -40 0
116 0
